
Log started (V12.8.0.0) Wed Aug 29 20:26:49 2018

New value for time limit in seconds: 500
CPXPARAM_TimeLimit                               500
CPXPARAM_Emphasis_Numerical                      1
CPXPARAM_Parallel                                -1
CPXPARAM_Benders_Strategy                        3
CPXPARAM_MIP_Tolerances_Integrality              9.9999999999999995e-08
CPXPARAM_MIP_Pool_AbsGap                         0
Tried aggregator 4 times.
MIP Presolve eliminated 7516 rows and 3546 columns.
MIP Presolve added 236 rows and 0 columns.
Aggregator did 1213 substitutions.
Reduced MIP has 3373 rows, 2689 columns, and 11330 nonzeros.
Reduced MIP has 271 binaries, 0 generals, 0 SOSs, and 0 indicators.
Presolve time = 0.01 sec. (16.32 ticks)
Found incumbent of value 0.600000 after 0.02 sec. (25.18 ticks)
Tried aggregator 1 time.
MIP Presolve eliminated 236 rows and 0 columns.
MIP Presolve added 236 rows and 0 columns.
MIP Presolve modified 10 coefficients.
Reduced MIP has 3373 rows, 2689 columns, and 11330 nonzeros.
Reduced MIP has 271 binaries, 0 generals, 0 SOSs, and 0 indicators.
Presolve time = 0.00 sec. (4.14 ticks)

        Nodes                                         Cuts/
   Node  Left     Objective  IInf  Best Integer    Best Bound    ItCnt     Gap

      0     0       10.0000                       Benders: 10        0         
      0     0       10.0000                        Benders: 1        2         
      0     0       10.0000                        Benders: 1        3         
      0     0       10.0000                        Benders: 2        4         
      0     0       10.0000                        Benders: 1        6         
      0     0       10.0000                        Benders: 1        7         
      0     0       10.0000                        Benders: 4        8         
Tried aggregator 1 time.
MIP Presolve eliminated 236 rows and 0 columns.
MIP Presolve modified 230 coefficients.
Reduced MIP has 277 rows, 281 columns, and 900 nonzeros.
Reduced MIP has 271 binaries, 0 generals, 0 SOSs, and 0 indicators.
Presolve time = 0.00 sec. (0.96 ticks)
Probing time = 0.00 sec. (0.34 ticks)
Tried aggregator 1 time.
Reduced MIP has 277 rows, 281 columns, and 900 nonzeros.
Reduced MIP has 271 binaries, 0 generals, 0 SOSs, and 0 indicators.
Presolve time = 0.00 sec. (0.59 ticks)
Probing time = 0.00 sec. (0.34 ticks)
Clique table members: 256.
MIP emphasis: balance optimality and feasibility.
MIP search method: dynamic search.
Parallel mode: opportunistic, using up to 8 threads.
Root relaxation solution time = 0.00 sec. (0.33 ticks)
*     0+    0                            0.6000       10.0000              --- 
      0     0       10.0000     3        0.6000       10.0000       26     --- 
*     0+    0                            4.5833       10.0000           118.18%

Repeating presolve.
Tried aggregator 1 time.
Reduced MIP has 277 rows, 281 columns, and 900 nonzeros.
Reduced MIP has 271 binaries, 0 generals, 0 SOSs, and 0 indicators.
Presolve time = 0.00 sec. (0.60 ticks)
Probing time = 0.00 sec. (0.34 ticks)
Tried aggregator 1 time.
Reduced MIP has 277 rows, 281 columns, and 900 nonzeros.
Reduced MIP has 271 binaries, 0 generals, 0 SOSs, and 0 indicators.
Presolve time = 0.00 sec. (0.59 ticks)
Represolve time = 0.00 sec. (2.25 ticks)
Probing time = 0.00 sec. (0.34 ticks)
Clique table members: 256.
MIP emphasis: balance optimality and feasibility.
MIP search method: dynamic search.
Parallel mode: opportunistic, using up to 8 threads.
Root relaxation solution time = 0.00 sec. (0.64 ticks)
*     0+    0                            4.5833       10.0000           118.18%
      0     0       10.0000     7        4.5833       10.0000       64  118.18%
      0     0       10.0000     8        4.5833      Cuts: 14       65  118.18%
      0     0       10.0000     9        4.5833      Cuts: 19       75  118.18%
      0     2       10.0000    20        4.5833      Cuts: 36       75  118.18%
Elapsed time = 0.45 sec. (379.46 ticks, tree = 0.01 MB, solutions = 1)
*    25+    2                            7.4895       10.0000            33.52%
*   229+   68                            9.4881       10.0000             5.40%
*   369    42      integral     0        9.6333       10.0000     1978    3.81%
*   390    51      integral     0        9.9048       10.0000     2368    0.96%
*  1171+  198                            9.9048       10.0000             0.96%
   1523   138        9.9314     4        9.9048        9.9587     8114    0.54%

Benders cuts applied:  791
Cover cuts applied:  6
Flow cuts applied:  1
Mixed integer rounding cuts applied:  16
Zero-half cuts applied:  7
Gomory fractional cuts applied:  10

Root node processing (before b&c):
  Real time             =    0.41 sec. (378.87 ticks)
Parallel b&c, 8 threads:
  Real time             =    0.71 sec. (489.93 ticks)
  Sync time (average)   =    0.02 sec.
  Wait time (average)   =    0.01 sec.
                          ------------
Total (root+branch&cut) =    1.13 sec. (868.80 ticks)

Solution pool: 1 solution saved.

MIP - Integer optimal, tolerance (0.0001/1e-06):  Objective =  9.9047619050e+00
Current MIP best bound =  9.9056086142e+00 (gap = 0.000846709, 0.01%)
Solution time =    1.13 sec.  Iterations = 10696  Nodes = 1948 (1)
Deterministic time = 869.38 ticks  (771.76 ticks/sec)


Solution pool written to file 'ngp_a9_b1_n1.sol'.
Current MIP best bound =  9.9056086142e+00 (gap = 0.000846709, 0.01%)
